NAME : Random_ATSP_Instance
TYPE : ATSP
DIMENSION : 5
EDGE_WEIGHT_TYPE : EXPLICIT
EDGE_WEIGHT_FORMAT : FULL_MATRIX
NODE_COORD_TYPE : NO_COORDS
DISPLAY_DATA_TYPE: TWOD_DISPLAY
EDGE_WEIGHT_SECTION
729 2 729 729 3
8 729 2 729 5
4 8 729 729 729
729 729 8 729 729
729 8 729 2 729
EOF
